15106,17344,9166,9744,10984,11945,24866,25751,7969,25024,23417,18258,7081,15297,9577,3352,22776,25208,22335,2548,3337,23682,14096,9542,20427,10096,25096,21693,2375,20991,19577,9236,21101,16464,5058,19487,19723,19697,12543,6437,15788,19694,19583,9918,1577,5047,26004,21462,21520,14357,11855,18779,24842,2849,17193,10433,8527,14066,19458,14640,24108,24100,10503,19254,15463,22213,16908,1796,14894,20316,15106